#######################################
### Exact MIP solver for the HHCRSP ###
#######################################
-- Instance file: new-instances/HHCRSP_75_15_81_1.6_R_RC.txt
-- Max threads: 4
-- Time limit: 999999 seconds
-- Use initial solution: No
Trivial flow violations prevented generating 19820 variables.
Model exported.
Version identifier: 20.1.0.0 | 2020-11-10 | 9bedb6d68
CPXPARAM_Threads                                 4
CPXPARAM_TimeLimit                               999999
Parallel mode: deterministic, using up to 4 threads for concurrent optimization:
 * Starting dual Simplex on 1 thread...
 * Starting Barrier on 3 threads...
Tried aggregator 1 time.
LP Presolve eliminated 2622 rows and 553 columns.
Reduced LP has 16110 rows, 15518 columns, and 151305 nonzeros.
Presolve time = 0.07 sec. (42.07 ticks)
Symmetry aggregator did 12554 additional substitutions.

Iteration log . . .
Iteration:     1   Dual objective     =             0.000000
Iteration:   322   Dual objective     =           137.000000

Dual crossover.
  Dual:  Fixing 134 variables.
      133 DMoves:  Infeasibility  2.74780423e-14  Objective  1.37014087e+02
        0 DMoves:  Infeasibility  1.33782099e-14  Objective  1.37014087e+02
  Dual:  Pushed 7, exchanged 127.
  Primal:  Fixing 79 variables.
       78 PMoves:  Infeasibility  3.33039802e-16  Objective  1.37014087e+02
        0 PMoves:  Infeasibility  1.66560559e-16  Objective  1.37014087e+02
  Primal:  Pushed 40, exchanged 39.

Dual simplex solved model.


Solution status from MIP model:
-- Processing time: 0.145 sec.
-- Memory used: 80.584 MB
-- Best bound: inf
-- Obj value: 137.014
-- Gap: inf%
-- Total distance: 411.042
-- Total tardiness: 0
-- Largest tardiness: 0
